36 28
0 3 8 9 11 12 13 14 16 21 26 27 28 29 
0 1 3 9 11 12 13 14 15 17 18 19 20 21 26 27 28 29 
0 2 3 8 11 12 13 14 15 16 22 23 24 25 26 27 28 29 
0 32 3 4 8 9 12 13 14 16 17 21 22 27 28 29 30 31 
0 3 4 5 8 9 13 14 16 17 18 21 22 23 28 29 31 32 33 34 
0 3 4 6 8 9 12 14 16 17 19 21 22 24 27 29 30 32 33 35 
0 3 4 7 8 9 12 13 16 17 20 21 22 25 27 28 30 31 34 35 
1 3 8 10 15 17 18 19 20 21 26 27 28 29 
1 2 3 8 9 10 17 18 19 20 22 23 24 25 26 27 28 29 
32 1 3 4 8 10 11 15 18 19 20 21 22 27 28 29 30 31 
1 3 4 5 8 10 11 12 15 19 20 21 22 23 28 29 31 32 33 34 
1 3 4 6 8 10 11 13 15 18 20 21 22 24 27 29 30 32 33 35 
1 3 4 7 8 10 11 14 15 18 19 21 22 25 27 28 30 31 34 35 
2 3 9 10 15 16 22 23 24 25 26 27 28 29 
32 2 3 4 9 10 11 15 16 17 23 24 25 27 28 29 30 31 
2 3 4 5 9 10 11 12 15 16 17 18 24 25 28 29 31 32 33 34 
2 3 4 6 9 10 11 13 15 16 17 19 23 25 27 29 30 32 33 35 
2 3 4 7 9 10 11 14 15 16 17 20 23 24 27 28 30 31 34 35 
32 3 4 10 11 16 17 21 22 27 28 29 30 31 
32 33 34 3 4 5 10 11 12 16 17 18 21 22 23 28 29 31 
32 33 3 4 35 6 10 11 13 16 17 19 21 22 24 27 29 30 
34 3 4 35 7 10 11 14 16 17 20 21 22 25 27 28 30 31 
32 33 34 4 5 11 12 17 18 22 23 26 27 31 
32 33 35 4 6 11 13 17 19 22 24 26 28 30 
34 35 4 7 11 14 17 20 22 25 26 29 30 31 
32 34 35 4 5 6 11 12 13 17 18 19 22 23 24 26 27 28 
33 35 4 5 7 11 12 14 17 18 20 22 23 25 26 27 29 31 
33 34 4 6 7 11 13 14 17 19 20 22 24 25 26 28 29 30 
